c file = i-7-32-faw00-01.cnf
c classDir= /home/guest/brglez/tests_cnfFormula2Class/@cnfFormula2Class_OUT02/faw00/faw00_P
c classInstance= i0000.cnf 
c functionID= faw00_P_0000 
c created on Fri Sep 21 14:55:32 EDT 2001 
c
c % B.cover.f.exh  ../xBenchm/coverBinate/tiny/i-7-32-faw00-01.cnf
c # Output from B.cover.f.exh: 
c # Exhaustive enumeration of instance ../xBenchm/coverBinate/tiny/i-7-32-faw00-01.cnf 
c # .. completed on Sat Oct 18 13:14:06 EDT 2014 
c # table below can be read in R 
c rank	cntCoord	cntFeasible	probOfFeasible
c 0	1	0 	   0
c 1	7	1 	0.1429
c 2	21	5 	0.2381
c 3	35	6 	0.1714
c 4	35	4 	0.1143
c 5	21	0 	   0
c 6	7	0 	   0
c 7	1	0 	   0
c # there are 1 valueBest solutions
c # 0001000;1
c # 
c #	nDim	cntCoordLmt	runtimeCoord	runtimeProbe	hostID 
c #	7	128	0.009346	0.025446000000000003	brglez@triangle-Darwin-13.4.0
c
c
p cnf 7 32
-1 -3 7 0
-1 -3 6 0
-1 -3 -4 0
-1 -2 -3 0
-1 3 4 -7 0
-1 -2 4 0
-2 3 4 0
1 2 -3 4 0
3 4 5 -7 0
1 3 4 5 0
1 2 4 5 0
4 6 0
-3 4 7 0
-2 4 7 0
1 4 7 0
-1 -5 0
-2 -5 0
-3 -5 0
-4 -5 0
-5 6 0
-5 7 0
-1 3 -6 -7 0
-1 -2 -6 0
-2 3 -6 0
1 2 -3 -6 0
-4 -6 0
3 5 -6 -7 0
1 3 5 -6 0
1 2 5 -6 0
-3 -6 7 0
-2 -6 7 0
1 -6 7 0
